NAME : expansion
TYPE : TSP
DIMENSION : 50
EDGE_WEIGHT_TYPE : EUC_2D
NODE_COORD_SECTION
1 775753 118376
2 635084 5925
3 480688 256886
4 78034 977507
5 690714 240669
6 953944 930395
7 476600 177718
8 921557 6812
9 771714 97109
10 920883 589826
11 493596 100210
12 532574 144074
13 890453 718851
14 622715 919735
15 627053 130519
16 867578 850584
17 541679 305584
18 886075 878031
19 512444 201519
20 652571 94662
21 259925 81528
22 950533 927876
23 211068 115224
24 926616 773267
25 196067 954858
26 601187 865300
27 621306 90961
28 663240 47439
29 529288 137353
30 471674 181829
31 956366 71953
32 170090 984753
33 437221 420306
34 464167 280427
35 218074 971324
36 218305 955898
37 192741 903440
38 239500 923421
39 933683 11008
40 167400 83099
41 51525 998079
42 898255 889479
43 460279 606347
44 643221 251496
45 149160 872031
46 523378 777905
47 748676 250648
48 478395 193631
49 664289 92940
50 646925 913495
EOF
